Cu N  H                                 
   1.00000000000000     
    10.1185019483668626    0.0000000000000000    0.0000000000000000
    -5.0592509741834357    8.7628797355280419    0.0000000000000000
     0.0000000000000011    0.0000000000000020   18.5888750511421748
   Cu   N    H 
    48     1     2
Direct
  0.9989791916671251  0.0013483383653323  0.6120288983755202
  0.0002159987444301  0.2504106727306734  0.6147197973654031
  0.9955811972153441  0.4970465000765287  0.6120749948895181
  0.9956769967084682  0.7495745608048949  0.6110905560368209
  0.2442589638963000  0.0048000883586781  0.6177154135415108
  0.2505198067767509  0.2525902225729979  0.6119748692924176
  0.2513995525555686  0.4970288203584730  0.6120880101833137
  0.2517195652427162  0.7534455781581570  0.6015888947395851
  0.5105639619850777  0.0048048392148488  0.6176862008337451
  0.5033237387911242  0.2566417797875786  0.6110319545999943
  0.5011232907212886  0.5014158736191661  0.6133483700175617
  0.5038669635762218  0.7495699974945467  0.6110941559066845
  0.7523714790485201  0.0013766290895489  0.6120277697057617
  0.7520649504795855  0.2525984384918445  0.6119729681756496
  0.7502645542395214  0.5013943205663693  0.6133474898756432
  0.7505039901720494  0.7509404313022756  0.6132925637384687
  0.0833353490578972  0.1667105920989442  0.3888914750963153
  0.0832968422650566  0.4165932609486021  0.3888087229236703
  0.0832435440676491  0.6666285076675180  0.3887304844814352
  0.0832742163551501  0.9167315504961735  0.3887845909347334
  0.3333328060537539  0.1666895845075018  0.3888651385839310
  0.3333480938776106  0.4166301396454344  0.3888379365908676
  0.3333852676638784  0.6666285047069991  0.3887304392062845
  0.3333898974244320  0.9167798460071808  0.3887126737263884
  0.5833569845817763  0.1666884711762009  0.3888651606590017
  0.5833676408495734  0.4166826824797880  0.3888843558056578
  0.5833842973877665  0.6666594034625604  0.3888299310793286
  0.5834592047577374  0.9167315569503032  0.3887845812812216
  0.8333755496195181  0.1667095258174740  0.3888916034623833
  0.8332840770095160  0.4166300841315973  0.3888380107256211
  0.8332759386767137  0.6666594042422958  0.3888301141602071
  0.8333716148266817  0.9166709718535770  0.3888762695486534
  0.1666110586540768  0.0833739298360641  0.4999550541168318
  0.1666083412934398  0.3331738517553120  0.4998733169278040
  0.1663479759737427  0.5826938631551215  0.4992783466037451
  0.1660513484585096  0.8339693884896917  0.4990421511171377
  0.4168894660513942  0.0837790208734290  0.4997711325904319
  0.4166400827429939  0.3334047633341157  0.5000080581250472
  0.4169142382939270  0.5832660619649701  0.4997610659663465
  0.4179186096015499  0.8339698559609943  0.4990416715902057
  0.6667634989872937  0.0833737001214061  0.4999549281493572
  0.6667652052002495  0.3334048310225057  0.5000084517869539
  0.6666428337983277  0.5833160054280597  0.4999429987259205
  0.6669237527974730  0.8334096702891003  0.4998717852127399
  0.9167334695518150  0.0834507611373283  0.5000249642936581
  0.9165658254248470  0.3331732778711256  0.4998734465041395
  0.9163513160455210  0.5832663545700782  0.4997611692200721
  0.9164851159485394  0.8334082927130950  0.4998725369234194
  0.3519022794709628  0.9537208832588249  0.6858575540747793
  0.3777232388913632  0.0052271205894314  0.7351568218055746
  0.1983558491575295  0.6468906813793823  0.7196811620069679
 
  0.00000000E+00  0.00000000E+00  0.00000000E+00
  0.00000000E+00  0.00000000E+00  0.00000000E+00
  0.00000000E+00  0.00000000E+00  0.00000000E+00
  0.00000000E+00  0.00000000E+00  0.00000000E+00
  0.00000000E+00  0.00000000E+00  0.00000000E+00
  0.00000000E+00  0.00000000E+00  0.00000000E+00
  0.00000000E+00  0.00000000E+00  0.00000000E+00
  0.00000000E+00  0.00000000E+00  0.00000000E+00
  0.00000000E+00  0.00000000E+00  0.00000000E+00
  0.00000000E+00  0.00000000E+00  0.00000000E+00
  0.00000000E+00  0.00000000E+00  0.00000000E+00
  0.00000000E+00  0.00000000E+00  0.00000000E+00
  0.00000000E+00  0.00000000E+00  0.00000000E+00
  0.00000000E+00  0.00000000E+00  0.00000000E+00
  0.00000000E+00  0.00000000E+00  0.00000000E+00
  0.00000000E+00  0.00000000E+00  0.00000000E+00
  0.00000000E+00  0.00000000E+00  0.00000000E+00
  0.00000000E+00  0.00000000E+00  0.00000000E+00
  0.00000000E+00  0.00000000E+00  0.00000000E+00
  0.00000000E+00  0.00000000E+00  0.00000000E+00
  0.00000000E+00  0.00000000E+00  0.00000000E+00
  0.00000000E+00  0.00000000E+00  0.00000000E+00
  0.00000000E+00  0.00000000E+00  0.00000000E+00
  0.00000000E+00  0.00000000E+00  0.00000000E+00
  0.00000000E+00  0.00000000E+00  0.00000000E+00
  0.00000000E+00  0.00000000E+00  0.00000000E+00
  0.00000000E+00  0.00000000E+00  0.00000000E+00
  0.00000000E+00  0.00000000E+00  0.00000000E+00
  0.00000000E+00  0.00000000E+00  0.00000000E+00
  0.00000000E+00  0.00000000E+00  0.00000000E+00
  0.00000000E+00  0.00000000E+00  0.00000000E+00
  0.00000000E+00  0.00000000E+00  0.00000000E+00
  0.00000000E+00  0.00000000E+00  0.00000000E+00
  0.00000000E+00  0.00000000E+00  0.00000000E+00
  0.00000000E+00  0.00000000E+00  0.00000000E+00
  0.00000000E+00  0.00000000E+00  0.00000000E+00
  0.00000000E+00  0.00000000E+00  0.00000000E+00
  0.00000000E+00  0.00000000E+00  0.00000000E+00
  0.00000000E+00  0.00000000E+00  0.00000000E+00
  0.00000000E+00  0.00000000E+00  0.00000000E+00
  0.00000000E+00  0.00000000E+00  0.00000000E+00
  0.00000000E+00  0.00000000E+00  0.00000000E+00
  0.00000000E+00  0.00000000E+00  0.00000000E+00
  0.00000000E+00  0.00000000E+00  0.00000000E+00
  0.00000000E+00  0.00000000E+00  0.00000000E+00
  0.00000000E+00  0.00000000E+00  0.00000000E+00
  0.00000000E+00  0.00000000E+00  0.00000000E+00
  0.00000000E+00  0.00000000E+00  0.00000000E+00
  0.00000000E+00  0.00000000E+00  0.00000000E+00
  0.00000000E+00  0.00000000E+00  0.00000000E+00
  0.00000000E+00  0.00000000E+00  0.00000000E+00
