Cu N  H 
 1.0000000000000000
    10.1185019483668626    0.0000000000000000    0.0000000000000000
    -5.0592509741834357    8.7628797355280419    0.0000000000000000
     0.0000000000000011    0.0000000000000020   18.5888750511421748
 Cu  N   H  
  48   1   2
Cartesian
 -0.0171506332934527  0.0118153269382197 11.3769287195906852
 -1.2647048562422520  2.1943186096315812 11.4269495046888601
 -2.5593946543125892  4.3555587031357241 11.3777856019297872
 -3.8360281442034587  6.5684317291445753 11.3594859911014456
  2.4472499503859693  0.0420625970070147 11.4826346394878058
  1.2569678233534090  2.2134177427774300 11.3759243797158156
  0.0291933187562191  4.3554037778926693 11.3780275415998240
 -1.2648453639403527  6.6023529886653440 11.1828607964688498
  5.1418335566334044  0.0421042281882759 11.4820916081131656
  3.7944670572108241  2.2489210513904547 11.3583966563144489
  2.5338282464565793  4.3938469980094963 11.4014562130781574
  1.3061161126207010  6.5683917414047750 11.3595529086325104
  7.6059075645857481  0.0120632351521182 11.3769077388896545
  6.3318117707090797  2.2134897378861851 11.3758890400937016
  5.0548736490877051  4.3936581311999134 11.4014398522300056
  3.7947799781931821  6.5804006880474013 11.4004188371290276
 -0.0002018336731292  1.4608648692017143  7.2290550390198378
 -1.2648106005407014  3.6505566443240540  7.2275167692222526
 -2.5303409639978285  5.8415854409649715  7.2260624045953126
 -3.7953646694741461  8.0332083267620966  7.2270681826951275
  2.5295042047036791  1.4606807822043584  7.2285654728817610
  1.2651468975096571  3.6508798079092237  7.2280598184315998
  0.0007185685564095  5.8415854150223314  7.2260615629812923
 -1.2648130023686166  8.0336315345168341  7.2257313226952373
  5.0593799749007689  1.4606710262160671  7.2285658832325330
  3.7947043432893528  3.6513402344476020  7.2289226994153317
  2.5301779133482176  5.8418561771013087  7.2279110049778224
  1.2657580775681911  8.0332083833189074  7.2270680032473038
  7.5890867916486453  1.4608555255054509  7.2290574252006357
  6.3237503977469780  3.6508793214480959  7.2280611965133179
  5.0587069686661597  5.8418561839340271  7.2279144082454296
  3.7948038009815033  8.0326774834025283  7.2287723849941390
  1.2640446858661567  0.7305957202317920  9.2936020321648769
  0.0002166919263136  2.9195623939544522  9.2920826297709951
 -1.2648021758210242  5.1060762454585511  9.2810228007578353
 -2.5390695482492762  7.3079734544470414  9.2766321923697088
  3.7944377815246089  0.7341454842741570  9.2901831378913613
  2.5289951153072354  2.9215858443490159  9.2945873170507127
  1.2676581402745799  5.1110903548140838  9.2899960106740096
  0.0094474593017690  7.3079775508418630  9.2766232785034042
  6.3248392900423145  0.7305937072698442  9.2935996905712166
  5.0598863117738633  2.9215864374942400  9.2945946347826975
  3.7942847439344516  5.1115280033747110  9.2933779360094100
  2.5318406057893421  7.3030687111694652  9.2920541569110267
  8.8537710532127747  0.7312689836846754  9.2949015837066398
  7.5886658597264027  2.9195573650763369  9.2920850384492812
  6.3212117042280580  5.1110929188774739  9.2899979300446134
  5.0570347145732821  7.3030566396365977  9.2920681303668804
 -1.2643894072646107  8.3573414012586635 12.7493203755781099
  3.7955480137314090  0.0458046290883122 13.6657383035386175
 -1.2657182637884377  5.6686252429613218 13.3630631972083123
