Cu N  H                                 
   1.00000000000000     
    10.1185019483668626    0.0000000000000000    0.0000000000000000
    -5.0592509741834357    8.7628797355280419    0.0000000000000000
     0.0000000000000011    0.0000000000000020   18.5888750511421748
   Cu   N    H 
    48     1     2
Direct
  0.9989599895820618  0.0022791278991505  0.6119466058185594
  0.0003560537262857  0.2506928521409080  0.6152021726688233
  0.9912269776369413  0.4962243089662763  0.6097811939057038
  0.9960149363008810  0.7499825303726908  0.6112938112019677
  0.2441291942250459  0.0058345375515003  0.6176519082128138
  0.2506344260617936  0.2524715919962333  0.6119169624702536
  0.2549038986212366  0.4962042072145465  0.6098053462549018
  0.2522041097433458  0.7544049383048375  0.6077734771196504
  0.5117385395960810  0.0058383121273877  0.6176121935583012
  0.5034813540928411  0.2566312314559198  0.6115238095157594
  0.5015316588670089  0.5015356601712995  0.6132369857301398
  0.5039241877357270  0.7499750199398107  0.6112990972158485
  0.7533219078493829  0.0023145396355773  0.6119453130190280
  0.7518416352718731  0.2524835623692709  0.6119143360152961
  0.7499708304769115  0.5015136053872311  0.6132348070840266
  0.7505499874312704  0.7512069402554005  0.6133003010252480
  0.0833286001455420  0.1666859762444943  0.3888824561057476
  0.0833151418828351  0.4166298965215560  0.3888044533490387
  0.0832965563488344  0.6666821757313244  0.3887717952173517
  0.0833046187801258  0.9167153206149052  0.3888195339051492
  0.3333217823357515  0.1667311762406527  0.3888729488349867
  0.3333581445438796  0.4166460879338061  0.3888235374278395
  0.3333854403546752  0.6666820829487463  0.3887717645351145
  0.3333743262608024  0.9167488175859049  0.3887832567682707
  0.5834095783797650  0.1667304568854746  0.3888727662930762
  0.5833564738125716  0.4166718880851334  0.3888696876930737
  0.5833870780628843  0.6666863767807456  0.3888295084929609
  0.5834112093167647  0.9167153538956256  0.3888193900334969
  0.8333578041546446  0.1666856884323806  0.3888823888792672
  0.8332893838803699  0.4166465375252670  0.3888235054985216
  0.8332986206091846  0.6666862850581055  0.3888303127523614
  0.8333812340189013  0.9167416123744729  0.3888855370560691
  0.1666130788779583  0.0835531030056984  0.4999644968237860
  0.1665418631700533  0.3330563525009751  0.4997473789380820
  0.1666618174097039  0.5833217896570631  0.4994468993193379
  0.1663996702706001  0.8337262012821682  0.4994721024886672
  0.4168113292480058  0.0836224480022310  0.4998283976628741
  0.4166625181674561  0.3333375672598251  0.4999763647118485
  0.4171194091071655  0.5834847800151266  0.4996476959710847
  0.4173259056744953  0.8337259250774451  0.4994721310523147
  0.6669417444757499  0.0835524971427901  0.4999638288515484
  0.6666795495753846  0.3333411746210828  0.4999737808307501
  0.6666437702030876  0.5833619043070613  0.4999268480287995
  0.6668760968094887  0.8334442124410018  0.4999033760330391
  0.9167247038801491  0.0834413288006317  0.5000241978131612
  0.9165157982551193  0.3330563582426578  0.4997470680227991
  0.9163619561636480  0.5834858089037667  0.4996469339445468
  0.9165656453025406  0.8334421753788348  0.4999035629902480
  0.3464201275361987  0.9427111657145701  0.6821512402385963
  0.3631993700109462  0.9761136165079876  0.7347666734450087
  0.1580165147788222  0.5662700570128152  0.7059020630166799
 
  0.00000000E+00  0.00000000E+00  0.00000000E+00
  0.00000000E+00  0.00000000E+00  0.00000000E+00
  0.00000000E+00  0.00000000E+00  0.00000000E+00
  0.00000000E+00  0.00000000E+00  0.00000000E+00
  0.00000000E+00  0.00000000E+00  0.00000000E+00
  0.00000000E+00  0.00000000E+00  0.00000000E+00
  0.00000000E+00  0.00000000E+00  0.00000000E+00
  0.00000000E+00  0.00000000E+00  0.00000000E+00
  0.00000000E+00  0.00000000E+00  0.00000000E+00
  0.00000000E+00  0.00000000E+00  0.00000000E+00
  0.00000000E+00  0.00000000E+00  0.00000000E+00
  0.00000000E+00  0.00000000E+00  0.00000000E+00
  0.00000000E+00  0.00000000E+00  0.00000000E+00
  0.00000000E+00  0.00000000E+00  0.00000000E+00
  0.00000000E+00  0.00000000E+00  0.00000000E+00
  0.00000000E+00  0.00000000E+00  0.00000000E+00
  0.00000000E+00  0.00000000E+00  0.00000000E+00
  0.00000000E+00  0.00000000E+00  0.00000000E+00
  0.00000000E+00  0.00000000E+00  0.00000000E+00
  0.00000000E+00  0.00000000E+00  0.00000000E+00
  0.00000000E+00  0.00000000E+00  0.00000000E+00
  0.00000000E+00  0.00000000E+00  0.00000000E+00
  0.00000000E+00  0.00000000E+00  0.00000000E+00
  0.00000000E+00  0.00000000E+00  0.00000000E+00
  0.00000000E+00  0.00000000E+00  0.00000000E+00
  0.00000000E+00  0.00000000E+00  0.00000000E+00
  0.00000000E+00  0.00000000E+00  0.00000000E+00
  0.00000000E+00  0.00000000E+00  0.00000000E+00
  0.00000000E+00  0.00000000E+00  0.00000000E+00
  0.00000000E+00  0.00000000E+00  0.00000000E+00
  0.00000000E+00  0.00000000E+00  0.00000000E+00
  0.00000000E+00  0.00000000E+00  0.00000000E+00
  0.00000000E+00  0.00000000E+00  0.00000000E+00
  0.00000000E+00  0.00000000E+00  0.00000000E+00
  0.00000000E+00  0.00000000E+00  0.00000000E+00
  0.00000000E+00  0.00000000E+00  0.00000000E+00
  0.00000000E+00  0.00000000E+00  0.00000000E+00
  0.00000000E+00  0.00000000E+00  0.00000000E+00
  0.00000000E+00  0.00000000E+00  0.00000000E+00
  0.00000000E+00  0.00000000E+00  0.00000000E+00
  0.00000000E+00  0.00000000E+00  0.00000000E+00
  0.00000000E+00  0.00000000E+00  0.00000000E+00
  0.00000000E+00  0.00000000E+00  0.00000000E+00
  0.00000000E+00  0.00000000E+00  0.00000000E+00
  0.00000000E+00  0.00000000E+00  0.00000000E+00
  0.00000000E+00  0.00000000E+00  0.00000000E+00
  0.00000000E+00  0.00000000E+00  0.00000000E+00
  0.00000000E+00  0.00000000E+00  0.00000000E+00
  0.00000000E+00  0.00000000E+00  0.00000000E+00
  0.00000000E+00  0.00000000E+00  0.00000000E+00
  0.00000000E+00  0.00000000E+00  0.00000000E+00
