K-Spacing Value to Generate K-Mesh: 0.034
0
Gamma
   3   3   1
0.0  0.0  0.0
