Cu N  H                                 
   1.00000000000000     
    10.1185019483668626    0.0000000000000000    0.0000000000000000
    -5.0592509741834357    8.7628797355280419    0.0000000000000000
     0.0000000000000011    0.0000000000000020   18.5888750511421748
   Cu   N    H 
    48     1     2
Direct
  0.9996884765382035  0.0048548752678599  0.6138964757196348
  0.0016920307862094  0.2531974988694756  0.6146133121977613
  0.0004275540885317  0.5015981634554052  0.6143741473265578
  0.9963733145200919  0.7523220056263682  0.6126026282330557
  0.2464185990369643  0.0081379102266794  0.6214694916671277
  0.2511466013055497  0.2556853293969255  0.6137714658059465
  0.2514793617780597  0.5013528462175572  0.6139990874217460
  0.2469535189427532  0.7433243221542298  0.6107355573710720
  0.5114228041002917  0.0076682114548490  0.6216572802546736
  0.5041779381598488  0.2581471692716448  0.6135399981193288
  0.5021347555914915  0.5034378565415238  0.6145856778833263
  0.5062514114964287  0.7522892873054374  0.6123064513593945
  0.7550158839629759  0.0048155148290761  0.6138457891787397
  0.7546201022708274  0.2556785764132030  0.6137858078679770
  0.7514357756726326  0.5034396786567541  0.6146175006064354
  0.7519321918214317  0.7536786877596526  0.6146951269651453
  0.0860531463197702  0.1705772657085589  0.3881570382273694
  0.0852474151292668  0.4203259060795546  0.3875135780918342
  0.0852234838182682  0.6704011528891058  0.3862406481110483
  0.0857646571040718  0.9214536909289919  0.3878173461217642
  0.3348721460060915  0.1698269999213409  0.3890923676337366
  0.3358646821551687  0.4205556894970428  0.3876058095029506
  0.3353972657399424  0.6703749016247045  0.3861374014484369
  0.3354149305472802  0.9205709326429670  0.3875332969017293
  0.5850906722738358  0.1698410577703271  0.3890754024108247
  0.5852971874909301  0.4204178588256795  0.3880920055112611
  0.5856399530538923  0.6705443054341274  0.3878051135268308
  0.5858587728897220  0.9213948189618719  0.3877707901330822
  0.8346263363825486  0.1705248886611770  0.3882059549116050
  0.8348405368640570  0.4205781644594140  0.3877329133084899
  0.8351119662278066  0.6705938344614353  0.3879270453075705
  0.8354091960587198  0.9206501148264081  0.3872144946269103
  0.1702532885584205  0.0856337606454929  0.5036566881664228
  0.1682481052045190  0.3375543700760630  0.5006010868745534
  0.1699751625513599  0.5897018284853033  0.4997113121895609
  0.1686382699365225  0.8374911540134562  0.5002666812987826
  0.4179482915600090  0.0856428822530191  0.5033876354714835
  0.4185762187292781  0.3370754108750518  0.5012039986054688
  0.4182122409127089  0.5871222458726209  0.5006771031677033
  0.4190682189859984  0.8374018690566416  0.5002651054373288
  0.6655605762146237  0.0856054045042143  0.5036825020432190
  0.6686359584670711  0.3370615856393826  0.5012230620898777
  0.6689825325272665  0.5878594013386120  0.5012915384846153
  0.6698005244953578  0.8385075293294904  0.5004941533789449
  0.9193133647381160  0.0886360272264852  0.5000170424693238
  0.9195329809608808  0.3377172518266534  0.5007557782800589
  0.9191448407207545  0.5871917011950671  0.5008538885611102
  0.9189680773723765  0.8384520239283901  0.5006649826661018
  0.3310624686824823  0.9128475316738331  0.6811597065939452
  0.3363775032258332  0.9229378932839154  0.7360907848551150
  0.2335105130967250  0.7245809642748143  0.6928557080369118
 
  0.00000000E+00  0.00000000E+00  0.00000000E+00
  0.00000000E+00  0.00000000E+00  0.00000000E+00
  0.00000000E+00  0.00000000E+00  0.00000000E+00
  0.00000000E+00  0.00000000E+00  0.00000000E+00
  0.00000000E+00  0.00000000E+00  0.00000000E+00
  0.00000000E+00  0.00000000E+00  0.00000000E+00
  0.00000000E+00  0.00000000E+00  0.00000000E+00
  0.00000000E+00  0.00000000E+00  0.00000000E+00
  0.00000000E+00  0.00000000E+00  0.00000000E+00
  0.00000000E+00  0.00000000E+00  0.00000000E+00
  0.00000000E+00  0.00000000E+00  0.00000000E+00
  0.00000000E+00  0.00000000E+00  0.00000000E+00
  0.00000000E+00  0.00000000E+00  0.00000000E+00
  0.00000000E+00  0.00000000E+00  0.00000000E+00
  0.00000000E+00  0.00000000E+00  0.00000000E+00
  0.00000000E+00  0.00000000E+00  0.00000000E+00
  0.00000000E+00  0.00000000E+00  0.00000000E+00
  0.00000000E+00  0.00000000E+00  0.00000000E+00
  0.00000000E+00  0.00000000E+00  0.00000000E+00
  0.00000000E+00  0.00000000E+00  0.00000000E+00
  0.00000000E+00  0.00000000E+00  0.00000000E+00
  0.00000000E+00  0.00000000E+00  0.00000000E+00
  0.00000000E+00  0.00000000E+00  0.00000000E+00
  0.00000000E+00  0.00000000E+00  0.00000000E+00
  0.00000000E+00  0.00000000E+00  0.00000000E+00
  0.00000000E+00  0.00000000E+00  0.00000000E+00
  0.00000000E+00  0.00000000E+00  0.00000000E+00
  0.00000000E+00  0.00000000E+00  0.00000000E+00
  0.00000000E+00  0.00000000E+00  0.00000000E+00
  0.00000000E+00  0.00000000E+00  0.00000000E+00
  0.00000000E+00  0.00000000E+00  0.00000000E+00
  0.00000000E+00  0.00000000E+00  0.00000000E+00
  0.00000000E+00  0.00000000E+00  0.00000000E+00
  0.00000000E+00  0.00000000E+00  0.00000000E+00
  0.00000000E+00  0.00000000E+00  0.00000000E+00
  0.00000000E+00  0.00000000E+00  0.00000000E+00
  0.00000000E+00  0.00000000E+00  0.00000000E+00
  0.00000000E+00  0.00000000E+00  0.00000000E+00
  0.00000000E+00  0.00000000E+00  0.00000000E+00
  0.00000000E+00  0.00000000E+00  0.00000000E+00
  0.00000000E+00  0.00000000E+00  0.00000000E+00
  0.00000000E+00  0.00000000E+00  0.00000000E+00
  0.00000000E+00  0.00000000E+00  0.00000000E+00
  0.00000000E+00  0.00000000E+00  0.00000000E+00
  0.00000000E+00  0.00000000E+00  0.00000000E+00
  0.00000000E+00  0.00000000E+00  0.00000000E+00
  0.00000000E+00  0.00000000E+00  0.00000000E+00
  0.00000000E+00  0.00000000E+00  0.00000000E+00
  0.00000000E+00  0.00000000E+00  0.00000000E+00
  0.00000000E+00  0.00000000E+00  0.00000000E+00
  0.00000000E+00  0.00000000E+00  0.00000000E+00
