Cu N  H 
 1.0000000000000000
    10.1185019483668626    0.0000000000000000    0.0000000000000000
    -5.0592509741834357    8.7628797355280419    0.0000000000000000
     0.0000000000000011    0.0000000000000020   18.5888750511421748
 Cu  N   H  
  48   1   2
Cartesian
 -0.0220540274842874  0.0199717236821154 11.3753989935317872
 -1.2647153260915622  2.1967913138672888 11.4359163189319961
 -2.5992931624248388  4.3483539413170167 11.3351464220494567
 -3.8346727222125367  6.5720067174029273 11.3632642759698719
  2.4407033376280181  0.0511273508762260 11.4814541468675539
  1.2587277806735337  2.2123781973002679 11.3748479570340120
  0.0688239761011479  4.3481777920841385 11.3355953870508479
 -1.2647961432234054  6.6107597462537537 11.2978252255753482
  5.1484899236393034  0.0511604270308013 11.4807158961170472
  3.7961152546055130  2.2488286176286771 11.3675396858868947
  2.5373542901041133  4.3948966731597743 11.3993857044766482
  1.3046460251893963  6.5719409043828048 11.3633625370214730
  7.6107793554153611  0.0202820324696792 11.3753749618427591
  6.3301333424797148  2.2124830922396082 11.3747991341909280
  5.0512981127773626  4.3947034097393827 11.3993452058962852
  3.7938970658695461  6.5827360739520868 11.4005626645862836
 -0.0001455847702955  1.4606491634295913  7.2288873861310528
 -1.2648107843807144  3.6508776774439120  7.2274374026328854
 -2.5300760793315322  5.8420557277537588  7.2268303247036041
 -3.7949749314352110  8.0330661062644619  7.2277177332062061
  2.5291822381751343  1.4610452455599869  7.2287106566627282
  1.2651679088023917  3.6510195608421698  7.2277921541892320
  0.0004492501568303  5.8420549147112135  7.2268297543553572
 -1.2648135786475725  8.0333596361927953  7.2270433820414572
  5.0596997291076109  1.4610389419370817  7.2287072634140088
  3.7946459611553962  3.6512456444654280  7.2286500357032422
  2.5300695848285786  5.8420925410445808  7.2279031495726960
  1.2653544109253783  8.0330663978994075  7.2277150587939438
  7.5890278334415493  1.4606466413666692  7.2288861364663886
  6.3237208534821008  3.6510235005581011  7.2277915606591021
  5.0588004790505092  5.8420917372901240  7.2279180998501289
  3.7945437446726125  8.0332964977915893  7.2289446575315468
  1.2631586454723707  0.7321657931691063  9.2937775614645197
  0.0001384911222969  2.9185327621196619  9.2897415842158644
 -1.2648034084064774  5.1115786898778195  9.2841560061275459
 -2.5343147081984121  7.3058424341942683  9.2846245046931806
  3.7944392955784312  0.7327734550340094  9.2912476311677672
  2.5295620899976372  2.9209970132313519  9.2939981721529019
  1.2686276120397402  5.1130069547835832  9.2878885899975288
  0.0046842910212978  7.3058400138454846  9.2846250356591771
  6.3257382883599798  0.7321604840653111  9.2937651446120633
  5.0593416588777496  2.9210286241041885  9.2939501407100042
  3.7940620049995495  5.1119302097313932  9.2930777127187216
  2.5311836411663791  7.3033713998923968  9.2926413947223381
  8.8537300783055493  0.7311863292525982  9.2948873356964476
  7.5887511854562559  2.9185328124333791  9.2897358046505278
  6.3202090917325737  5.1130159708109950  9.2878744247814140
  5.0576781300889389  7.3033535493615709  9.2926448700465372
 -1.2641596480865174  8.2608645704962367 12.6804241707769663
  3.7958807420530154 -0.2093135058571816 13.6584858844126469
 -1.2660119249293305  4.9621564074338993 13.1219252477605561
