Cu N  H                                 
   1.00000000000000     
    10.1185019483668626    0.0000000000000000    0.0000000000000000
    -5.0592509741834357    8.7628797355280419    0.0000000000000000
     0.0000000000000011    0.0000000000000020   18.5888750511421748
   Cu   N    H 
    48     1     2
Direct
 -0.0009215872919369  0.0000852239093497  0.6122321434217900   T   T   T
  0.0000806539348902  0.2501593280144166  0.6132206093802192   T   T   T
 -0.0006247848698860  0.4990954486244638  0.6137111308400514   T   T   T
 -0.0020156841120259  0.7484495023852805  0.6122006280146758   T   T   T
  0.2463203317686281  0.0006771805134414  0.6194267710708848   T   T   T
  0.2500624576165749  0.2520699341920603  0.6121635262338099   T   T   T
  0.2497215413774744  0.4990926539966892  0.6137115649897348   T   T   T
  0.2461817308627448  0.7423571201552729  0.6095418130003947   T   T   T
  0.5043533421801173  0.0006680974567174  0.6194276260436599   T   T   T
  0.5038573626849211  0.2577146236032244  0.6095146594883986   T   T   T
  0.5006201105056862  0.5014744854382817  0.6137789334222913   T   T   T
  0.5004676138637891  0.7484465026518222  0.6122014734642877   T   T   T
  0.7510087572591230  0.0000859585481984  0.6122319678215413   T   T   T
  0.7520076587735790  0.2520670695152477  0.6121638523115139   T   T   T
  0.7508558979631303  0.5014724395233854  0.6137793144987590   T   T   T
  0.7501490590577856  0.7502950116725404  0.6133312493685006   T   T   T
  0.0833333333333357  0.1666666666666643  0.3888888888888857   F   F   F
  0.0833333333333357  0.4166666666666643  0.3888888888888857   F   F   F
  0.0833333333333357  0.6666666666666643  0.3888888888888857   F   F   F
  0.0833333333333357  0.9166666666666643  0.3888888888888857   F   F   F
  0.3333333333333357  0.1666666666666643  0.3888888888888857   F   F   F
  0.3333333333333357  0.4166666666666643  0.3888888888888857   F   F   F
  0.3333333333333357  0.6666666666666643  0.3888888888888857   F   F   F
  0.3333333333333357  0.9166666666666643  0.3888888888888857   F   F   F
  0.5833333333333357  0.1666666666666643  0.3888888888888857   F   F   F
  0.5833333333333357  0.4166666666666643  0.3888888888888857   F   F   F
  0.5833333333333357  0.6666666666666643  0.3888888888888857   F   F   F
  0.5833333333333357  0.9166666666666643  0.3888888888888857   F   F   F
  0.8333333333333357  0.1666666666666643  0.3888888888888857   F   F   F
  0.8333333333333357  0.4166666666666643  0.3888888888888857   F   F   F
  0.8333333333333357  0.6666666666666643  0.3888888888888857   F   F   F
  0.8333333333333357  0.9166666666666643  0.3888888888888857   F   F   F
  0.1666666666666643  0.0833333333333357  0.5000000000000000   F   F   F
  0.1666666666666643  0.3333333333333357  0.5000000000000000   F   F   F
  0.1666666666666643  0.5833333333333357  0.5000000000000000   F   F   F
  0.1666666666666643  0.8333333333333357  0.5000000000000000   F   F   F
  0.4166666666666643  0.0833333333333357  0.5000000000000000   F   F   F
  0.4166666666666643  0.3333333333333357  0.5000000000000000   F   F   F
  0.4166666666666643  0.5833333333333357  0.5000000000000000   F   F   F
  0.4166666666666643  0.8333333333333357  0.5000000000000000   F   F   F
  0.6666666666666643  0.0833333333333357  0.5000000000000000   F   F   F
  0.6666666666666643  0.3333333333333357  0.5000000000000000   F   F   F
  0.6666666666666643  0.5833333333333357  0.5000000000000000   F   F   F
  0.6666666666666643  0.8333333333333357  0.5000000000000000   F   F   F
  0.9166666666666643  0.0833333333333357  0.5000000000000000   F   F   F
  0.9166666666666643  0.3333333333333357  0.5000000000000000   F   F   F
  0.9166666666666643  0.5833333333333357  0.5000000000000000   F   F   F
  0.9166666666666643  0.8333333333333357  0.5000000000000000   F   F   F
  0.3737731126050403  0.9975473816323496  0.6993484007302723   T   T   T
  0.4204656311824161  0.0909224535856688  0.7322510761390139   T   T   T
  0.3265643150063117  0.9031389311973080  0.7316317945646248   T   T   T
 
  0.00000000E+00  0.00000000E+00  0.00000000E+00
  0.00000000E+00  0.00000000E+00  0.00000000E+00
  0.00000000E+00  0.00000000E+00  0.00000000E+00
  0.00000000E+00  0.00000000E+00  0.00000000E+00
  0.00000000E+00  0.00000000E+00  0.00000000E+00
  0.00000000E+00  0.00000000E+00  0.00000000E+00
  0.00000000E+00  0.00000000E+00  0.00000000E+00
  0.00000000E+00  0.00000000E+00  0.00000000E+00
  0.00000000E+00  0.00000000E+00  0.00000000E+00
  0.00000000E+00  0.00000000E+00  0.00000000E+00
  0.00000000E+00  0.00000000E+00  0.00000000E+00
  0.00000000E+00  0.00000000E+00  0.00000000E+00
  0.00000000E+00  0.00000000E+00  0.00000000E+00
  0.00000000E+00  0.00000000E+00  0.00000000E+00
  0.00000000E+00  0.00000000E+00  0.00000000E+00
  0.00000000E+00  0.00000000E+00  0.00000000E+00
  0.00000000E+00  0.00000000E+00  0.00000000E+00
  0.00000000E+00  0.00000000E+00  0.00000000E+00
  0.00000000E+00  0.00000000E+00  0.00000000E+00
  0.00000000E+00  0.00000000E+00  0.00000000E+00
  0.00000000E+00  0.00000000E+00  0.00000000E+00
  0.00000000E+00  0.00000000E+00  0.00000000E+00
  0.00000000E+00  0.00000000E+00  0.00000000E+00
  0.00000000E+00  0.00000000E+00  0.00000000E+00
  0.00000000E+00  0.00000000E+00  0.00000000E+00
  0.00000000E+00  0.00000000E+00  0.00000000E+00
  0.00000000E+00  0.00000000E+00  0.00000000E+00
  0.00000000E+00  0.00000000E+00  0.00000000E+00
  0.00000000E+00  0.00000000E+00  0.00000000E+00
  0.00000000E+00  0.00000000E+00  0.00000000E+00
  0.00000000E+00  0.00000000E+00  0.00000000E+00
  0.00000000E+00  0.00000000E+00  0.00000000E+00
  0.00000000E+00  0.00000000E+00  0.00000000E+00
  0.00000000E+00  0.00000000E+00  0.00000000E+00
  0.00000000E+00  0.00000000E+00  0.00000000E+00
  0.00000000E+00  0.00000000E+00  0.00000000E+00
  0.00000000E+00  0.00000000E+00  0.00000000E+00
  0.00000000E+00  0.00000000E+00  0.00000000E+00
  0.00000000E+00  0.00000000E+00  0.00000000E+00
  0.00000000E+00  0.00000000E+00  0.00000000E+00
  0.00000000E+00  0.00000000E+00  0.00000000E+00
  0.00000000E+00  0.00000000E+00  0.00000000E+00
  0.00000000E+00  0.00000000E+00  0.00000000E+00
  0.00000000E+00  0.00000000E+00  0.00000000E+00
  0.00000000E+00  0.00000000E+00  0.00000000E+00
  0.00000000E+00  0.00000000E+00  0.00000000E+00
  0.00000000E+00  0.00000000E+00  0.00000000E+00
  0.00000000E+00  0.00000000E+00  0.00000000E+00
  0.00000000E+00  0.00000000E+00  0.00000000E+00
  0.00000000E+00  0.00000000E+00  0.00000000E+00
  0.00000000E+00  0.00000000E+00  0.00000000E+00
