Cu N  H                                 
   1.00000000000000     
    10.1185019483668626    0.0000000000000000    0.0000000000000000
    -5.0592509741834357    8.7628797355280419    0.0000000000000000
     0.0000000000000011    0.0000000000000020   18.5888750511421748
   Cu   N    H 
    48     1     2
Direct
  0.9989678769152078  0.0027860520801254  0.6117627765802980   T   T   T
  0.0002769883767084  0.2505516479584270  0.6161669050129790   T   T   T
  0.9981856707112745  0.4994236286448281  0.6144103845024806   T   T   T
  0.9963648176080415  0.7495138725039613  0.6115845267506468   T   T   T
  0.2444738544485104  0.0068192788931485  0.6179283115476976   T   T   T
  0.2510716752597290  0.2524306097603570  0.6116568924569095   T   T   T
  0.2511075154558615  0.4993874355371977  0.6144330952377037   T   T   T
  0.2468000324509329  0.7435767597196543  0.6164396557317070   T   T   T
  0.5124042483945840  0.0068415940541255  0.6178672555686004   T   T   T
  0.5028928773217028  0.2557856340559931  0.6125170615526836   T   T   T
  0.5008774060025220  0.5016294015172913  0.6131485006409527   T   T   T
  0.5030921634670056  0.7495072466562707  0.6115898784979699   T   T   T
  0.7538197953718353  0.0028378254306641  0.6117609982981110   T   T   T
  0.7513457983564328  0.2524497840172971  0.6116529209706801   T   T   T
  0.7506941856734523  0.5015842713218189  0.6131473109310366   T   T   T
  0.7507346517130200  0.7514978195719375  0.6133239701521851   T   T   T
  0.0833333333333357  0.1666666666666643  0.3888888888888857   F   F   F
  0.0833333333333357  0.4166666666666643  0.3888888888888857   F   F   F
  0.0833333333333357  0.6666666666666643  0.3888888888888857   F   F   F
  0.0833333333333357  0.9166666666666643  0.3888888888888857   F   F   F
  0.3333333333333357  0.1666666666666643  0.3888888888888857   F   F   F
  0.3333333333333357  0.4166666666666643  0.3888888888888857   F   F   F
  0.3333333333333357  0.6666666666666643  0.3888888888888857   F   F   F
  0.3333333333333357  0.9166666666666643  0.3888888888888857   F   F   F
  0.5833333333333357  0.1666666666666643  0.3888888888888857   F   F   F
  0.5833333333333357  0.4166666666666643  0.3888888888888857   F   F   F
  0.5833333333333357  0.6666666666666643  0.3888888888888857   F   F   F
  0.5833333333333357  0.9166666666666643  0.3888888888888857   F   F   F
  0.8333333333333357  0.1666666666666643  0.3888888888888857   F   F   F
  0.8333333333333357  0.4166666666666643  0.3888888888888857   F   F   F
  0.8333333333333357  0.6666666666666643  0.3888888888888857   F   F   F
  0.8333333333333357  0.9166666666666643  0.3888888888888857   F   F   F
  0.1666666666666643  0.0833333333333357  0.5000000000000000   F   F   F
  0.1666666666666643  0.3333333333333357  0.5000000000000000   F   F   F
  0.1666666666666643  0.5833333333333357  0.5000000000000000   F   F   F
  0.1666666666666643  0.8333333333333357  0.5000000000000000   F   F   F
  0.4166666666666643  0.0833333333333357  0.5000000000000000   F   F   F
  0.4166666666666643  0.3333333333333357  0.5000000000000000   F   F   F
  0.4166666666666643  0.5833333333333357  0.5000000000000000   F   F   F
  0.4166666666666643  0.8333333333333357  0.5000000000000000   F   F   F
  0.6666666666666643  0.0833333333333357  0.5000000000000000   F   F   F
  0.6666666666666643  0.3333333333333357  0.5000000000000000   F   F   F
  0.6666666666666643  0.5833333333333357  0.5000000000000000   F   F   F
  0.6666666666666643  0.8333333333333357  0.5000000000000000   F   F   F
  0.9166666666666643  0.0833333333333357  0.5000000000000000   F   F   F
  0.9166666666666643  0.3333333333333357  0.5000000000000000   F   F   F
  0.9166666666666643  0.5833333333333357  0.5000000000000000   F   F   F
  0.9166666666666643  0.8333333333333357  0.5000000000000000   F   F   F
  0.3348354379192502  0.9194145842427467  0.6756099776098627   T   T   T
  0.3342478531795833  0.9180777434942096  0.7306327863494160   T   T   T
  0.0846433504048442  0.4193278576676213  0.6642245537819129   T   T   T
 
  0.00000000E+00  0.00000000E+00  0.00000000E+00
  0.00000000E+00  0.00000000E+00  0.00000000E+00
  0.00000000E+00  0.00000000E+00  0.00000000E+00
  0.00000000E+00  0.00000000E+00  0.00000000E+00
  0.00000000E+00  0.00000000E+00  0.00000000E+00
  0.00000000E+00  0.00000000E+00  0.00000000E+00
  0.00000000E+00  0.00000000E+00  0.00000000E+00
  0.00000000E+00  0.00000000E+00  0.00000000E+00
  0.00000000E+00  0.00000000E+00  0.00000000E+00
  0.00000000E+00  0.00000000E+00  0.00000000E+00
  0.00000000E+00  0.00000000E+00  0.00000000E+00
  0.00000000E+00  0.00000000E+00  0.00000000E+00
  0.00000000E+00  0.00000000E+00  0.00000000E+00
  0.00000000E+00  0.00000000E+00  0.00000000E+00
  0.00000000E+00  0.00000000E+00  0.00000000E+00
  0.00000000E+00  0.00000000E+00  0.00000000E+00
  0.00000000E+00  0.00000000E+00  0.00000000E+00
  0.00000000E+00  0.00000000E+00  0.00000000E+00
  0.00000000E+00  0.00000000E+00  0.00000000E+00
  0.00000000E+00  0.00000000E+00  0.00000000E+00
  0.00000000E+00  0.00000000E+00  0.00000000E+00
  0.00000000E+00  0.00000000E+00  0.00000000E+00
  0.00000000E+00  0.00000000E+00  0.00000000E+00
  0.00000000E+00  0.00000000E+00  0.00000000E+00
  0.00000000E+00  0.00000000E+00  0.00000000E+00
  0.00000000E+00  0.00000000E+00  0.00000000E+00
  0.00000000E+00  0.00000000E+00  0.00000000E+00
  0.00000000E+00  0.00000000E+00  0.00000000E+00
  0.00000000E+00  0.00000000E+00  0.00000000E+00
  0.00000000E+00  0.00000000E+00  0.00000000E+00
  0.00000000E+00  0.00000000E+00  0.00000000E+00
  0.00000000E+00  0.00000000E+00  0.00000000E+00
  0.00000000E+00  0.00000000E+00  0.00000000E+00
  0.00000000E+00  0.00000000E+00  0.00000000E+00
  0.00000000E+00  0.00000000E+00  0.00000000E+00
  0.00000000E+00  0.00000000E+00  0.00000000E+00
  0.00000000E+00  0.00000000E+00  0.00000000E+00
  0.00000000E+00  0.00000000E+00  0.00000000E+00
  0.00000000E+00  0.00000000E+00  0.00000000E+00
  0.00000000E+00  0.00000000E+00  0.00000000E+00
  0.00000000E+00  0.00000000E+00  0.00000000E+00
  0.00000000E+00  0.00000000E+00  0.00000000E+00
  0.00000000E+00  0.00000000E+00  0.00000000E+00
  0.00000000E+00  0.00000000E+00  0.00000000E+00
  0.00000000E+00  0.00000000E+00  0.00000000E+00
  0.00000000E+00  0.00000000E+00  0.00000000E+00
  0.00000000E+00  0.00000000E+00  0.00000000E+00
  0.00000000E+00  0.00000000E+00  0.00000000E+00
  0.00000000E+00  0.00000000E+00  0.00000000E+00
  0.00000000E+00  0.00000000E+00  0.00000000E+00
  0.00000000E+00  0.00000000E+00  0.00000000E+00
