Cu N  H 
 1.0000000000000000
    10.1185019483668626    0.0000000000000000    0.0000000000000000
    -5.0592509741834357    8.7628797355280419    0.0000000000000000
     0.0000000000000011    0.0000000000000020   18.5888750511421748
 Cu  N   H  
  48   1   2
Cartesian
 -0.0142677262184717  0.0079410177108680 11.3784439251237899
 -1.2647078339561850  2.1932697417124647 11.4180697506405675
 -2.5421291539436264  4.3655127861994796 11.4010557585124772
 -3.8312982096722661  6.5619368887524718 11.3611939384712421
  2.4574802141191752  0.0306400889998827 11.4852804454126911
  1.2560136905395538  2.2127735848853529 11.3769753499792579
  0.0121261791564595  4.3653976095038169 11.4012180602675741
 -1.2648772764716227  6.5222130636054807 11.1681612021256402
  5.1315308075564605  0.0306346691872378 11.4849327392508389
  3.7944391448864829  2.2509424423664504 11.3494496520830772
  2.5315050272435902  4.3934250821395890 11.4041616480969594
  1.3014856624932667  6.5619028798901775 11.3612469356338313
  7.6030513789020295  0.0081416689204660 11.3784282177266132
  6.3328030990654085  2.2128151128798086 11.3769525650337382
  5.0572604594749260  4.3932947762806531 11.4041519678963379
  3.7947500468979078  6.5783879007433441 11.4004564457503470
 -0.0001017495421850  1.4607439123068449  7.2291167732440860
 -1.2648112663846527  3.6504530758230973  7.2276499606159108
 -2.5303104931880398  5.8415008868381753  7.2263285683812120
 -3.7952093986624829  8.0330881589337064  7.2273832179262625
  2.5295437231782740  1.4606572205351380  7.2287492015474957
  1.2651173861883154  3.6508450185846755  7.2282327471359684
  0.0006897483413579  5.8415046584573256  7.2263275485951928
 -1.2648131680368087  8.0333955204734835  7.2262616303763130
  5.0593392768429197  1.4606487626494193  7.2287496452809306
  3.7947461645941289  3.6512484056039707  7.2290782920495911
  2.5301124262512711  5.8418015990535013  7.2280927544620317
  1.2655966040617463  8.0330882222432312  7.2273829985773483
  7.5889845199460337  1.4607372602620057  7.2291191462612474
  6.3237777758806786  3.6508447538648956  7.2282341559843797
  5.0587709883934142  5.8418036246329077  7.2280954668766988
  3.7947043305181212  8.0327310259498113  7.2287672177746112
  1.2643199312789049  0.7304615865251988  9.2938995658045904
  0.0002654579480136  2.9198757541245608  9.2932262137684685
 -1.2647994285381894  5.1031200336352551  9.2799833474001296
 -2.5370725749531329  7.3065452774935977  9.2797330139963705
  3.7944377235000371  0.7328336157346950  9.2909090586451395
  2.5290581595075272  2.9215753003748874  9.2947766111019696
  1.2671404256872822  5.1103512042315007  9.2911502426522663
  0.0074509970352279  7.3065496608697469  9.2797234743365422
  6.3245625794533673  0.7304605970337521  9.2938985004919239
  5.0598227742205628  2.9215749760934555  9.2947845439344690
  3.7943632814019153  5.1113847727211290  9.2936394621809502
  2.5315421192978182  7.3028450252795682  9.2922751914222719
  8.8537494644814956  0.7310970245010312  9.2948104092370070
  7.5886159967701357  2.9198719210421928  9.2932292570666188
  6.3217410621807186  5.1103389687940473  9.2911543162573835
  5.0573323967623027  7.3028352287527767  9.2922871066068460
 -1.2645739635464099  8.4728550951028403 12.8230293596685723
  3.7952328108805813  0.2972585732088724 13.6592152749987541
 -1.2656350055240773  6.4284057317619814 13.5057466998141287
