Cu N  H                                 
   1.00000000000000     
    10.1185019483668626    0.0000000000000000    0.0000000000000000
    -5.0592509741834357    8.7628797355280419    0.0000000000000000
     0.0000000000000011    0.0000000000000020   18.5888750511421748
   Cu   N    H 
    48     1     2
Direct
  0.9990430423836543  0.0009062109660931  0.6121104097918320
  0.0001558572439890  0.2502909782979330  0.6142421055188620
  0.9978554956265953  0.4981824375039636  0.6133268273171808
  0.9957738624982326  0.7488333843208963  0.6111824361191296
  0.2446182538069053  0.0034965776005862  0.6178577463033150
  0.2503887559993743  0.2525167127324508  0.6120314068860324
  0.2502830633473323  0.4981692938001672  0.6133355584402125
  0.2471437179410430  0.7443001913129024  0.6007981209943836
  0.5088913129961270  0.0034959591038373  0.6178390412358610
  0.5034363185292747  0.2568724563501945  0.6105506449883720
  0.5008696155757875  0.5013677255351325  0.6134939105632569
  0.5030390943805259  0.7488295033065171  0.6111852871341839
  0.7518654453461693  0.0009291088279397  0.6121095648027080
  0.7521244289903777  0.2525214518131733  0.6120301811558377
  0.7504797073657272  0.5013528553254645  0.6134933898108912
  0.7503861847307718  0.7507107365712287  0.6132945869174478
  0.0833383385948139  0.1666967887718940  0.3888947961269906
  0.0832908669590111  0.4165814419457092  0.3888158880368522
  0.0832417309002338  0.6666188585419590  0.3887448029264817
  0.0832827049519835  0.9167178372156002  0.3888015384493215
  0.3333353672173160  0.1666868957031440  0.3888750223808373
  0.3333431922679182  0.4166261695664701  0.3888472393971938
  0.3333778115167121  0.6666192889505993  0.3887447480664648
  0.3333764143574385  0.9167529126187901  0.3887412019552130
  0.5833516921052464  0.1666859305083719  0.3888750462517478
  0.5833665343515122  0.4166722031800134  0.3888927260073984
  0.5833747112110714  0.6666531751392881  0.3888397084049444
  0.5834363902603883  0.9167178444403419  0.3888015266493099
  0.8333586941429232  0.1666960296555970  0.3888949237849175
  0.8332848103720494  0.4166261393572483  0.3888473151870642
  0.8332792666990585  0.6666534062938254  0.3888398543209632
  0.8333648393514537  0.9166770820078796  0.3888759915748849
  0.1666306073266171  0.0833586228010930  0.4999710601225189
  0.1666310407603575  0.3332096117086110  0.4999348367343757
  0.1661795693837362  0.5823565069534453  0.4992224285691762
  0.1661672168897823  0.8338064081685488  0.4992089617293018
  0.4168146065827827  0.0836293134052184  0.4998101839451721
  0.4166457117021309  0.3334035600796526  0.5000182413153027
  0.4168208980564145  0.5831817117736051  0.4998231585876098
  0.4176398277284363  0.8338069083895121  0.4992084485374164
  0.6667285568761585  0.0833585098825651  0.4999710028133677
  0.6667582718818110  0.3334035230733861  0.5000186680669145
  0.6666424229876142  0.5832996602700860  0.4999570676876388
  0.6668814904544433  0.8333841437616769  0.4998836759006196
  0.9167215241657445  0.0834311375445296  0.5000200595068236
  0.9165788457331843  0.3332091742859262  0.4999350004504777
  0.9163606123494148  0.5831803154931805  0.4998233777297116
  0.9165019020851162  0.8333830258042099  0.4998843168853213
  0.3584751206181593  0.9669030445266387  0.6898227743416143
  0.3920397652126653  0.0339224755080991  0.7348059114615140
  0.2417162922584168  0.7335951109426730  0.7265499747917374
 
  0.00000000E+00  0.00000000E+00  0.00000000E+00
  0.00000000E+00  0.00000000E+00  0.00000000E+00
  0.00000000E+00  0.00000000E+00  0.00000000E+00
  0.00000000E+00  0.00000000E+00  0.00000000E+00
  0.00000000E+00  0.00000000E+00  0.00000000E+00
  0.00000000E+00  0.00000000E+00  0.00000000E+00
  0.00000000E+00  0.00000000E+00  0.00000000E+00
  0.00000000E+00  0.00000000E+00  0.00000000E+00
  0.00000000E+00  0.00000000E+00  0.00000000E+00
  0.00000000E+00  0.00000000E+00  0.00000000E+00
  0.00000000E+00  0.00000000E+00  0.00000000E+00
  0.00000000E+00  0.00000000E+00  0.00000000E+00
  0.00000000E+00  0.00000000E+00  0.00000000E+00
  0.00000000E+00  0.00000000E+00  0.00000000E+00
  0.00000000E+00  0.00000000E+00  0.00000000E+00
  0.00000000E+00  0.00000000E+00  0.00000000E+00
  0.00000000E+00  0.00000000E+00  0.00000000E+00
  0.00000000E+00  0.00000000E+00  0.00000000E+00
  0.00000000E+00  0.00000000E+00  0.00000000E+00
  0.00000000E+00  0.00000000E+00  0.00000000E+00
  0.00000000E+00  0.00000000E+00  0.00000000E+00
  0.00000000E+00  0.00000000E+00  0.00000000E+00
  0.00000000E+00  0.00000000E+00  0.00000000E+00
  0.00000000E+00  0.00000000E+00  0.00000000E+00
  0.00000000E+00  0.00000000E+00  0.00000000E+00
  0.00000000E+00  0.00000000E+00  0.00000000E+00
  0.00000000E+00  0.00000000E+00  0.00000000E+00
  0.00000000E+00  0.00000000E+00  0.00000000E+00
  0.00000000E+00  0.00000000E+00  0.00000000E+00
  0.00000000E+00  0.00000000E+00  0.00000000E+00
  0.00000000E+00  0.00000000E+00  0.00000000E+00
  0.00000000E+00  0.00000000E+00  0.00000000E+00
  0.00000000E+00  0.00000000E+00  0.00000000E+00
  0.00000000E+00  0.00000000E+00  0.00000000E+00
  0.00000000E+00  0.00000000E+00  0.00000000E+00
  0.00000000E+00  0.00000000E+00  0.00000000E+00
  0.00000000E+00  0.00000000E+00  0.00000000E+00
  0.00000000E+00  0.00000000E+00  0.00000000E+00
  0.00000000E+00  0.00000000E+00  0.00000000E+00
  0.00000000E+00  0.00000000E+00  0.00000000E+00
  0.00000000E+00  0.00000000E+00  0.00000000E+00
  0.00000000E+00  0.00000000E+00  0.00000000E+00
  0.00000000E+00  0.00000000E+00  0.00000000E+00
  0.00000000E+00  0.00000000E+00  0.00000000E+00
  0.00000000E+00  0.00000000E+00  0.00000000E+00
  0.00000000E+00  0.00000000E+00  0.00000000E+00
  0.00000000E+00  0.00000000E+00  0.00000000E+00
  0.00000000E+00  0.00000000E+00  0.00000000E+00
  0.00000000E+00  0.00000000E+00  0.00000000E+00
  0.00000000E+00  0.00000000E+00  0.00000000E+00
  0.00000000E+00  0.00000000E+00  0.00000000E+00
